c Random generated cnf formula, satisfiable: true
p cnf 10 50
-4 8 -3 0
-1 10 9 0
5 9 4 0
1 4 7 0
-6 9 3 0
7 -2 9 0
-7 -4 10 0
-9 -10 -7 0
-2 4 -10 0
2 -6 8 0
10 -2 -8 0
5 -4 6 0
-6 3 4 0
7 3 8 0
-3 -1 -6 0
9 4 -3 0
9 -6 -4 0
-4 8 5 0
1 -9 -10 0
10 -5 6 0
9 -2 5 0
5 2 10 0
-9 5 -6 0
-9 7 -3 0
5 -8 4 0
10 -3 -1 0
4 5 1 0
-9 -4 -1 0
3 6 -9 0
7 -2 8 0
8 -3 -5 0
-6 -2 -7 0
9 -3 10 0
4 7 5 0
-2 -8 6 0
1 3 2 0
2 -8 5 0
-3 9 2 0
-7 -6 3 0
5 8 1 0
8 -4 1 0
-7 -2 -10 0
-7 6 -4 0
8 7 -1 0
2 10 -7 0
-8 10 6 0
9 -2 -8 0
-4 1 -8 0
-6 -5 2 0
10 7 3 0
